NAME : C12.534239.tour
COMMENT : Length = 534239
COMMENT : Found by LKH [Keld Helsgaun] Sun Dec 17 15:01:18 2017
TYPE : TOUR
DIMENSION : 110
TOUR_SECTION
1
91
88
87
82
79
77
72
71
74
78
80
81
108
92
90
89
86
85
84
83
109
21
22
23
24
27
29
31
30
28
26
25
107
33
34
35
37
40
39
38
36
32
105
11
14
18
19
20
16
17
15
13
106
99
100
101
98
97
96
95
94
93
103
60
58
56
55
54
57
59
61
104
76
2
3
5
4
6
8
7
9
10
12
102
44
48
50
53
51
52
49
47
46
45
43
42
41
110
68
66
64
75
63
67
70
69
65
62
73
-1
EOF
